\ENCODING=ISO-8859-1
\Problem name: ilog.cplex

Maximize
 obj: 712 x(0)#0 + 839 x(1)#1 + 811 x(2)#2 + 531 x(3)#3 + 621 x(4)#4
      + 641 x(5)#5 + 655 x(6)#6 + 909 x(7)#7 + 811 x(8)#8 + 606 x(9)#9
      + 886 x(10)#10 + 804 x(11)#11 + 555 x(12)#12 + 844 x(13)#13
      + 792 x(14)#14 + 537 x(15)#15 + 456 x(16)#16 + 452 x(17)#17
      + 813 x(18)#18 + 693 x(19)#19 + 682 x(20)#20 + 539 x(21)#21
      + 786 x(22)#22 + 781 x(23)#23 + 763 x(24)#24 + 672 x(25)#25
      + 672 x(26)#26 + 590 x(27)#27 + 1166 x(28)#28 + 546 x(29)#29
      + 441 x(30)#30 + 517 x(31)#31 + 1030 x(32)#32 + 352 x(33)#33
      + 862 x(34)#34 + 873 x(35)#35 + 871 x(36)#36 + 541 x(37)#37
      + 860 x(38)#38 + 706 x(39)#39 + 629 x(40)#40 + 552 x(41)#41
      + 557 x(42)#42 + 563 x(43)#43 + 1121 x(44)#44 + 551 x(45)#45
      + 539 x(46)#46 + 1137 x(47)#47 + 731 x(48)#48 + 1167 x(49)#49
      + 736 x(50)#50 + 863 x(51)#51 + 498 x(52)#52 + 566 x(53)#53
      + 424 x(54)#54 + 939 x(55)#55 + 1046 x(56)#56 + 952 x(57)#57
      + 588 x(58)#58 + 973 x(59)#59 + 978 x(60)#60 + 640 x(61)#61
      + 930 x(62)#62 + 625 x(63)#63 + 1001 x(64)#64 + 686 x(65)#65
      + 788 x(66)#66 + 1005 x(67)#67 + 750 x(68)#68 + 572 x(69)#69
      + 637 x(70)#70 + 513 x(71)#71 + 822 x(72)#72 + 560 x(73)#73
      + 831 x(74)#74 + 928 x(75)#75 + 334 x(76)#76 + 866 x(77)#77
      + 618 x(78)#78 + 652 x(79)#79 + 751 x(80)#80 + 672 x(81)#81
      + 708 x(82)#82 + 936 x(83)#83 + 901 x(84)#84 + 582 x(85)#85
      + 770 x(86)#86 + 932 x(87)#87 + 653 x(88)#88 + 402 x(89)#89
      + 555 x(90)#90 + 760 x(91)#91 + 449 x(92)#92 + 986 x(93)#93
      + 547 x(94)#94 + 832 x(95)#95 + 526 x(96)#96 + 574 x(97)#97
      + 1160 x(98)#98 + 695 x(99)#99
Subject To
 c1: 684 x(0)#0 + 924 x(1)#1 + 669 x(2)#2 + 293 x(3)#3 + 348 x(4)#4
     + 197 x(5)#5 + 409 x(6)#6 + 685 x(7)#7 + 720 x(8)#8 + 330 x(9)#9
     + 582 x(10)#10 + 701 x(11)#11 + 579 x(12)#12 + 249 x(13)#13 + 396 x(14)#14
     + 565 x(15)#15 + 616 x(16)#16 + 589 x(17)#17 + 606 x(18)#18 + 36 x(19)#19
     + 483 x(20)#20 + 153 x(21)#21 + 46 x(22)#22 + 272 x(23)#23 + 3 x(24)#24
     + 718 x(25)#25 + 580 x(26)#26 + 480 x(27)#27 + 822 x(28)#28 + 234 x(29)#29
     + 455 x(30)#30 + 133 x(31)#31 + 851 x(32)#32 + 425 x(33)#33 + 552 x(34)#34
     + 748 x(35)#35 + 413 x(36)#36 + 232 x(37)#37 + 849 x(38)#38 + 981 x(39)#39
     + 68 x(40)#40 + 350 x(41)#41 + 128 x(42)#42 + 345 x(43)#43 + 763 x(44)#44
     + 522 x(45)#45 + 282 x(46)#46 + 710 x(47)#47 + 170 x(48)#48 + 594 x(49)#49
     + 298 x(50)#50 + 946 x(51)#51 + 834 x(52)#52 + 640 x(53)#53 + 95 x(54)#54
     + 880 x(55)#55 + 914 x(56)#56 + 69 x(57)#57 + 295 x(58)#58 + 925 x(59)#59
     + 860 x(60)#60 + 394 x(61)#61 + 270 x(62)#62 + 778 x(63)#63 + 846 x(64)#64
     + 299 x(65)#65 + 292 x(66)#66 + 15 x(67)#67 + 473 x(68)#68 + 730 x(69)#69
     + 537 x(70)#70 + 596 x(71)#71 + 515 x(72)#72 + 509 x(73)#73 + 609 x(74)#74
     + 711 x(75)#75 + 13 x(76)#76 + 503 x(77)#77 + 544 x(78)#78 + 836 x(79)#79
     + 988 x(80)#80 + 71 x(81)#81 + 148 x(82)#82 + 199 x(83)#83 + 152 x(84)#84
     + 66 x(85)#85 + 997 x(86)#86 + 299 x(87)#87 + 871 x(88)#88 + 401 x(89)#89
     + 638 x(90)#90 + 808 x(91)#91 + 247 x(92)#92 + 546 x(93)#93 + 176 x(94)#94
     + 990 x(95)#95 + 5 x(96)#96 + 752 x(97)#97 + 482 x(98)#98 + 349 x(99)#99
     <= 24476
 c2: 304 x(0)#0 + 938 x(1)#1 + 579 x(2)#2 + 992 x(3)#3 + 228 x(4)#4
     + 309 x(5)#5 + 747 x(6)#6 + 765 x(7)#7 + 840 x(8)#8 + 560 x(9)#9
     + 548 x(10)#10 + 941 x(11)#11 + 415 x(12)#12 + 91 x(13)#13 + 812 x(14)#14
     + 284 x(15)#15 + 31 x(16)#16 + 655 x(17)#17 + 496 x(18)#18 + 335 x(19)#19
     + 434 x(20)#20 + 467 x(21)#21 + 776 x(22)#22 + 784 x(23)#23
     + 1000 x(24)#24 + 812 x(25)#25 + 797 x(26)#26 + 499 x(27)#27
     + 913 x(28)#28 + 721 x(29)#29 + 306 x(30)#30 + 542 x(31)#31 + 83 x(32)#32
     + 522 x(33)#33 + 821 x(34)#34 + 859 x(35)#35 + 696 x(36)#36 + 214 x(37)#37
     + 316 x(38)#38 + 549 x(39)#39 + 228 x(40)#40 + 407 x(41)#41 + 176 x(42)#42
     + 179 x(43)#43 + 578 x(44)#44 + 990 x(45)#45 + 307 x(46)#46 + 831 x(47)#47
     + 996 x(48)#48 + 974 x(49)#49 + 312 x(50)#50 + 22 x(51)#51 + 252 x(52)#52
     + 978 x(53)#53 + 470 x(54)#54 + 509 x(55)#55 + 766 x(56)#56 + 725 x(57)#57
     + 500 x(58)#58 + 184 x(59)#59 + 473 x(60)#60 + 942 x(61)#61 + 76 x(62)#62
     + 458 x(63)#63 + 689 x(64)#64 + 255 x(65)#65 + 88 x(66)#66 + 268 x(67)#67
     + 118 x(68)#68 + 257 x(69)#69 + 294 x(70)#70 + 173 x(71)#71 + 258 x(72)#72
     + 634 x(73)#73 + 282 x(74)#74 + 693 x(75)#75 + 389 x(76)#76 + 370 x(77)#77
     + 703 x(78)#78 + 242 x(79)#79 + 209 x(80)#80 + 776 x(81)#81 + 605 x(82)#82
     + 543 x(83)#83 + 685 x(84)#84 + 447 x(85)#85 + 769 x(86)#86 + 552 x(87)#87
     + 129 x(88)#88 + 472 x(89)#89 + 631 x(90)#90 + 917 x(91)#91 + 142 x(92)#92
     + 878 x(93)#93 + 464 x(94)#94 + 570 x(95)#95 + 99 x(96)#96 + 332 x(97)#97
     + 948 x(98)#98 + 51 x(99)#99 <= 25623
 c3: 87 x(0)#0 + 662 x(1)#1 + 407 x(2)#2 + 55 x(3)#3 + 482 x(4)#4 + 714 x(5)#5
     + 931 x(6)#6 + 316 x(7)#7 + 81 x(8)#8 + 93 x(9)#9 + 737 x(10)#10
     + 220 x(11)#11 + 533 x(12)#12 + 925 x(13)#13 + 814 x(14)#14 + 74 x(15)#15
     + 179 x(16)#16 + 418 x(17)#17 + 919 x(18)#18 + 479 x(19)#19 + 538 x(20)#20
     + 115 x(21)#21 + 741 x(22)#22 + 723 x(23)#23 + 391 x(24)#24 + 258 x(25)#25
     + 198 x(26)#26 + 116 x(27)#27 + 760 x(28)#28 + 519 x(29)#29 + 410 x(30)#30
     + 960 x(31)#31 + 674 x(32)#32 + 221 x(33)#33 + 816 x(34)#34 + 219 x(35)#35
     + 314 x(36)#36 + 302 x(37)#37 + 699 x(38)#38 + 798 x(39)#39 + 134 x(40)#40
     + 752 x(41)#41 + 201 x(42)#42 + 845 x(43)#43 + 465 x(44)#44 + 396 x(45)#45
     + 589 x(46)#46 + 943 x(47)#47 + 737 x(48)#48 + 626 x(49)#49 + 689 x(50)#50
     + 700 x(51)#51 + 913 x(52)#52 + 63 x(53)#53 + 126 x(54)#54 + 849 x(55)#55
     + 244 x(56)#56 + 842 x(57)#57 + 902 x(58)#58 + 714 x(59)#59 + 752 x(60)#60
     + 537 x(61)#61 + 992 x(62)#62 + 667 x(63)#63 + 735 x(64)#64 + 685 x(65)#65
     + 737 x(66)#66 + 991 x(67)#67 + 108 x(68)#68 + 864 x(69)#69 + 834 x(70)#70
     + 117 x(71)#71 + 578 x(72)#72 + 738 x(73)#73 + 247 x(74)#74 + 734 x(75)#75
     + 204 x(76)#76 + 583 x(77)#77 + 249 x(78)#78 + 703 x(79)#79 + 836 x(80)#80
     + 841 x(81)#81 + 743 x(82)#82 + 462 x(83)#83 + 573 x(84)#84 + 140 x(85)#85
     + 57 x(86)#86 + 998 x(87)#87 + 742 x(88)#88 + 117 x(89)#89 + 24 x(90)#90
     + 979 x(91)#91 + 92 x(92)#92 + 449 x(93)#93 + 655 x(94)#94 + 837 x(95)#95
     + 679 x(96)#96 + 607 x(97)#97 + 746 x(98)#98 + 236 x(99)#99 <= 26748
 c4: 384 x(0)#0 + 46 x(1)#1 + 97 x(2)#2 + 168 x(3)#3 + 768 x(4)#4 + 404 x(5)#5
     + 386 x(6)#6 + 573 x(7)#7 + 815 x(8)#8 + 987 x(9)#9 + 697 x(10)#10
     + 360 x(11)#11 + 46 x(12)#12 + 396 x(13)#13 + 105 x(14)#14 + 549 x(15)#15
     + 702 x(16)#16 + 49 x(17)#17 + 784 x(18)#18 + 796 x(19)#19 + 245 x(20)#20
     + 836 x(21)#21 + 140 x(22)#22 + 671 x(23)#23 + 964 x(24)#24 + 432 x(25)#25
     + 103 x(26)#26 + 53 x(27)#27 + 233 x(28)#28 + 267 x(29)#29 + 11 x(30)#30
     + 195 x(31)#31 + 829 x(32)#32 + 376 x(33)#33 + 990 x(34)#34 + 71 x(35)#35
     + 533 x(36)#36 + 902 x(37)#37 + 492 x(38)#38 + 356 x(39)#39 + 65 x(40)#40
     + 763 x(41)#41 + 207 x(42)#42 + 76 x(43)#43 + 719 x(44)#44 + 286 x(45)#45
     + 855 x(46)#46 + 353 x(47)#47 + 957 x(48)#48 + 607 x(49)#49 + 993 x(50)#50
     + 554 x(51)#51 + 128 x(52)#52 + 247 x(53)#53 + 418 x(54)#54 + 87 x(55)#55
     + 183 x(56)#56 + 614 x(57)#57 + 784 x(58)#58 + 355 x(59)#59 + 606 x(60)#60
     + 208 x(61)#61 + 596 x(62)#62 + 643 x(63)#63 + 531 x(64)#64 + 727 x(65)#65
     + 689 x(66)#66 + 634 x(67)#67 + 563 x(68)#68 + 112 x(69)#69 + 28 x(70)#70
     + 450 x(71)#71 + 123 x(72)#72 + 173 x(73)#73 + 329 x(74)#74 + 234 x(75)#75
     + 222 x(76)#76 + 69 x(77)#77 + 201 x(78)#78 + 571 x(79)#79 + 161 x(80)#80
     + 813 x(81)#81 + 421 x(82)#82 + 809 x(83)#83 + 319 x(84)#84 + 397 x(85)#85
     + 82 x(86)#86 + 57 x(87)#87 + 269 x(88)#88 + 163 x(89)#89 + 354 x(90)#90
     + 703 x(91)#91 + 325 x(92)#92 + 472 x(93)#93 + 85 x(94)#94 + 660 x(95)#95
     + 515 x(96)#96 + 155 x(97)#97 + 420 x(98)#98 + 818 x(99)#99 <= 21385
 c5: 26 x(0)#0 + 945 x(1)#1 + 50 x(2)#2 + 991 x(3)#3 + 556 x(4)#4 + 130 x(5)#5
     + 360 x(6)#6 + 907 x(7)#7 + 243 x(8)#8 + 570 x(9)#9 + 711 x(10)#10
     + 202 x(11)#11 + 2 x(12)#12 + 245 x(13)#13 + 477 x(14)#14 + 783 x(15)#15
     + 531 x(16)#16 + 295 x(17)#17 + 555 x(18)#18 + 559 x(19)#19 + 607 x(20)#20
     + 966 x(21)#21 + 212 x(22)#22 + 513 x(23)#23 + 239 x(24)#24 + 896 x(25)#25
     + 262 x(26)#26 + 702 x(27)#27 + 669 x(28)#28 + 60 x(29)#29 + 310 x(30)#30
     + 341 x(31)#31 + 409 x(32)#32 + 42 x(33)#33 + 741 x(34)#34 + 188 x(35)#35
     + 100 x(36)#36 + 426 x(37)#37 + 37 x(38)#38 + 389 x(39)#39 + 719 x(40)#40
     + 109 x(41)#41 + 545 x(42)#42 + 318 x(43)#43 + 873 x(44)#44 + 125 x(45)#45
     + 543 x(46)#46 + 622 x(47)#47 + 259 x(48)#48 + 749 x(49)#49 + 247 x(50)#50
     + 336 x(51)#51 + 284 x(52)#52 + 488 x(53)#53 + 432 x(54)#54 + 194 x(55)#55
     + 907 x(56)#56 + 283 x(57)#57 + 431 x(58)#58 + 762 x(59)#59 + 120 x(60)#60
     + 489 x(61)#61 + 767 x(62)#62 + 77 x(63)#63 + 984 x(64)#64 + 75 x(65)#65
     + 343 x(66)#66 + 855 x(67)#67 + 196 x(68)#68 + 500 x(69)#69 + 838 x(70)#70
     + 130 x(71)#71 + 441 x(72)#72 + 733 x(73)#73 + 223 x(74)#74 + 599 x(75)#75
     + 566 x(76)#76 + 325 x(77)#77 + 516 x(78)#78 + 693 x(79)#79 + 552 x(80)#80
     + 294 x(81)#81 + 764 x(82)#82 + 204 x(83)#83 + 788 x(84)#84 + 840 x(85)#85
     + 901 x(86)#86 + 1000 x(87)#87 + 513 x(88)#88 + 231 x(89)#89
     + 560 x(90)#90 + 367 x(91)#91 + 92 x(92)#92 + 140 x(93)#93 + 638 x(94)#94
     + 121 x(95)#95 + 808 x(96)#96 + 747 x(97)#97 + 990 x(98)#98 + 578 x(99)#99
     <= 23536
Bounds
 0 <= x(0)#0 <= 1
 0 <= x(1)#1 <= 1
 0 <= x(2)#2 <= 1
 0 <= x(3)#3 <= 1
 0 <= x(4)#4 <= 1
 0 <= x(5)#5 <= 1
 0 <= x(6)#6 <= 1
 0 <= x(7)#7 <= 1
 0 <= x(8)#8 <= 1
 0 <= x(9)#9 <= 1
 0 <= x(10)#10 <= 1
 0 <= x(11)#11 <= 1
 0 <= x(12)#12 <= 1
 0 <= x(13)#13 <= 1
 0 <= x(14)#14 <= 1
 0 <= x(15)#15 <= 1
 0 <= x(16)#16 <= 1
 0 <= x(17)#17 <= 1
 0 <= x(18)#18 <= 1
 0 <= x(19)#19 <= 1
 0 <= x(20)#20 <= 1
 0 <= x(21)#21 <= 1
 0 <= x(22)#22 <= 1
 0 <= x(23)#23 <= 1
 0 <= x(24)#24 <= 1
 0 <= x(25)#25 <= 1
 0 <= x(26)#26 <= 1
 0 <= x(27)#27 <= 1
 0 <= x(28)#28 <= 1
 0 <= x(29)#29 <= 1
 0 <= x(30)#30 <= 1
 0 <= x(31)#31 <= 1
 0 <= x(32)#32 <= 1
 0 <= x(33)#33 <= 1
 0 <= x(34)#34 <= 1
 0 <= x(35)#35 <= 1
 0 <= x(36)#36 <= 1
 0 <= x(37)#37 <= 1
 0 <= x(38)#38 <= 1
 0 <= x(39)#39 <= 1
 0 <= x(40)#40 <= 1
 0 <= x(41)#41 <= 1
 0 <= x(42)#42 <= 1
 0 <= x(43)#43 <= 1
 0 <= x(44)#44 <= 1
 0 <= x(45)#45 <= 1
 0 <= x(46)#46 <= 1
 0 <= x(47)#47 <= 1
 0 <= x(48)#48 <= 1
 0 <= x(49)#49 <= 1
 0 <= x(50)#50 <= 1
 0 <= x(51)#51 <= 1
 0 <= x(52)#52 <= 1
 0 <= x(53)#53 <= 1
 0 <= x(54)#54 <= 1
 0 <= x(55)#55 <= 1
 0 <= x(56)#56 <= 1
 0 <= x(57)#57 <= 1
 0 <= x(58)#58 <= 1
 0 <= x(59)#59 <= 1
 0 <= x(60)#60 <= 1
 0 <= x(61)#61 <= 1
 0 <= x(62)#62 <= 1
 0 <= x(63)#63 <= 1
 0 <= x(64)#64 <= 1
 0 <= x(65)#65 <= 1
 0 <= x(66)#66 <= 1
 0 <= x(67)#67 <= 1
 0 <= x(68)#68 <= 1
 0 <= x(69)#69 <= 1
 0 <= x(70)#70 <= 1
 0 <= x(71)#71 <= 1
 0 <= x(72)#72 <= 1
 0 <= x(73)#73 <= 1
 0 <= x(74)#74 <= 1
 0 <= x(75)#75 <= 1
 0 <= x(76)#76 <= 1
 0 <= x(77)#77 <= 1
 0 <= x(78)#78 <= 1
 0 <= x(79)#79 <= 1
 0 <= x(80)#80 <= 1
 0 <= x(81)#81 <= 1
 0 <= x(82)#82 <= 1
 0 <= x(83)#83 <= 1
 0 <= x(84)#84 <= 1
 0 <= x(85)#85 <= 1
 0 <= x(86)#86 <= 1
 0 <= x(87)#87 <= 1
 0 <= x(88)#88 <= 1
 0 <= x(89)#89 <= 1
 0 <= x(90)#90 <= 1
 0 <= x(91)#91 <= 1
 0 <= x(92)#92 <= 1
 0 <= x(93)#93 <= 1
 0 <= x(94)#94 <= 1
 0 <= x(95)#95 <= 1
 0 <= x(96)#96 <= 1
 0 <= x(97)#97 <= 1
 0 <= x(98)#98 <= 1
 0 <= x(99)#99 <= 1
Generals
 x(0)#0  x(1)#1  x(2)#2  x(3)#3  x(4)#4  x(5)#5  x(6)#6  x(7)#7  x(8)#8 
 x(9)#9  x(10)#10  x(11)#11  x(12)#12  x(13)#13  x(14)#14  x(15)#15  x(16)#16 
 x(17)#17  x(18)#18  x(19)#19  x(20)#20  x(21)#21  x(22)#22  x(23)#23 
 x(24)#24  x(25)#25  x(26)#26  x(27)#27  x(28)#28  x(29)#29  x(30)#30 
 x(31)#31  x(32)#32  x(33)#33  x(34)#34  x(35)#35  x(36)#36  x(37)#37 
 x(38)#38  x(39)#39  x(40)#40  x(41)#41  x(42)#42  x(43)#43  x(44)#44 
 x(45)#45  x(46)#46  x(47)#47  x(48)#48  x(49)#49  x(50)#50  x(51)#51 
 x(52)#52  x(53)#53  x(54)#54  x(55)#55  x(56)#56  x(57)#57  x(58)#58 
 x(59)#59  x(60)#60  x(61)#61  x(62)#62  x(63)#63  x(64)#64  x(65)#65 
 x(66)#66  x(67)#67  x(68)#68  x(69)#69  x(70)#70  x(71)#71  x(72)#72 
 x(73)#73  x(74)#74  x(75)#75  x(76)#76  x(77)#77  x(78)#78  x(79)#79 
 x(80)#80  x(81)#81  x(82)#82  x(83)#83  x(84)#84  x(85)#85  x(86)#86 
 x(87)#87  x(88)#88  x(89)#89  x(90)#90  x(91)#91  x(92)#92  x(93)#93 
 x(94)#94  x(95)#95  x(96)#96  x(97)#97  x(98)#98  x(99)#99 
End
